c Random generated cnf formula, satisfiable: true
p cnf 10 50
-10 -7 -9 0
-8 -1 -10 0
4 -5 -6 0
-4 -9 10 0
7 3 4 0
5 -4 6 0
10 2 5 0
-9 -10 4 0
-10 -2 5 0
-8 10 1 0
-2 -8 -7 0
-10 1 5 0
-5 -9 7 0
-10 4 9 0
5 -3 6 0
4 3 6 0
-6 3 -5 0
9 -8 6 0
4 5 3 0
9 -10 5 0
-6 10 -9 0
3 -8 5 0
7 3 2 0
-9 1 2 0
-5 4 -2 0
10 -5 -6 0
-6 -7 -8 0
-3 -6 -8 0
-2 -8 -1 0
8 5 2 0
5 1 4 0
-9 -6 10 0
-8 10 6 0
-8 10 -3 0
4 -1 3 0
-9 -10 -3 0
7 1 -3 0
2 -7 -5 0
3 -4 -9 0
-3 8 6 0
10 2 -9 0
-3 -9 6 0
-6 10 9 0
6 -7 -8 0
1 -8 -2 0
-2 9 5 0
-3 -2 7 0
-2 -9 -7 0
-6 9 -5 0
-5 -7 1 0
